p cnf 10 24
-1 -2 0
-1 -3 0
-2 -3 0
-4 -5 0
-4 -6 0
-5 -6 0
-7 -8 0
-1 -9 0
-2 -9 0
-3 -9 0
-4 9 0
-5 9 0
-6 9 0
-7 -9 0
-8 -9 0
-1 -10 0
-2 -10 0
-3 -10 0
-4 -10 0
-5 -10 0
-6 -10 0
-7 10 0
-8 10 0
-9 -10 0
